args: ../partial/bp/M9.cnf cubes/M9.cubes 100 50 12
iteration: 0
running icadical
lim: 100
refuted: 33509, progress: 33509/148624

iteration: 1
running icadical
lim: 100
refuted: 21751, progress: 55260/148624

iteration: 2
running icadical
lim: 100
refuted: 42338, progress: 97598/148624

iteration: 3
running icadical
lim: 100
refuted: 49949, progress: 147547/148624

iteration: 4
running icadical
lim: 100
refuted: 1077, progress: 148624/148624

c --- [ banner ] -------------------------------------------------------------
c 
c CaDiCaL Radically Simplified CDCL SAT Solver
c Copyright (c) 2016-2019 Armin Biere, JKU Linz
c 
c Version 1.2.1 92d72896c49b30ad2d50c8e1061ca0681cd23e60
c g++ (GCC) 4.8.5 20150623 (Red Hat 4.8.5-39) -Wall -Wextra -O3 -DNDEBUG -std=c++0x
c Thu Jan 30 22:37:32 EST 2020 Linux lov6.int.autonlab.org 3.10.0-1062.4.1.el7.x86_64 x86_64
c 
c --- [ parsing input ] ------------------------------------------------------
c 
c reading DIMACS file from '<stdin>' (use '-h' for a list of common options)
c found 'p cnf 3064 90219' header
c parsed 238843 clauses in 0.35 seconds process time
c disconnecting from '<stdin>'
c after reading 4114410 bytes 3.9 MB
c 
c --- [ options ] ------------------------------------------------------------
c 
c   --report=false                 (different from default 'true')
c 
c --- [ solving ] ------------------------------------------------------------
c 
c 
c --- [ result ] -------------------------------------------------------------
c 
s UNSATISFIABLE
c 
c --- [ run-time profiling ] -------------------------------------------------
c 
c process time taken by individual solving procedures
c (percentage relative to process time for solving)
c 
c         0.00   97.13% search
c         0.00   64.27% unstable
c         0.00   32.38% lucky
c         0.00    0.00% simplify
c   =================================
c         0.00    0.30% solve
c 
c last line shows process time for solving
c (percentage relative to total process time)
c 
c --- [ statistics ] ---------------------------------------------------------
c 
c chronological:                 4        50.00 %  of conflicts
c conflicts:                     8      7662.84    per second
c decisions:                    13     12452.11    per second
c fixed:                      1536        50.13 %  of all variables
c learned:                       7        87.50 %  per conflict
c minimized:                     0         0.00 %  learned literals
c propagations:                 38         0.04 M  per second
c restarts:                      1         8.00    interval
c 
c seconds are measured in process time for solving
c 
c --- [ resources ] ----------------------------------------------------------
c 
c total process time since initialization:         0.35    seconds
c total real time since initialization:            0.58    seconds
c maximum resident set size of process:           21.64    MB
c 
c --- [ shutting down ] ------------------------------------------------------
c 
c exit 20

real	7m4.116s
user	77m17.558s
sys	1m0.687s
